122	0

0	3	2	3	4
10	7	6	9	10	11	13	15	16
3	3	5	7	8
7	2	5	7
3	7	6	9	10	11	13	15	16
6	6	17	18	19	20	21	25
5	5	9	12	13	14	20
10	3	12	14	20
5	5	17	18	19	21	25
6	6	17	18	19	20	21	25
3	3	12	14	20
5	5	17	18	19	21	25
10	6	24	26	27	28	29	33
5	5	17	18	19	21	25
6	6	17	18	19	20	21	25
10	2	22	23
3	2	22	23
10	6	30	31	32	35	38	45
7	3	24	27	33
9	3	24	27	33
7	3	24	27	33
1	6	24	26	27	28	29	33
3	4	24	27	29	33
3	6	30	31	32	35	38	45
8	7	30	31	32	35	37	38	45
9	3	30	31	35
2	7	30	31	32	35	37	38	45
8	4	30	31	35	45
3	7	30	31	32	35	37	38	45
3	7	36	39	40	41	43	44	50
1	3	34	42	46
5	2	34	42
8	2	34	42
1	7	36	39	40	41	43	44	50
3	7	36	39	40	41	43	44	50
6	7	48	51	53	55	56	57	58
8	3	40	41	47
8	1	47
2	1	47
6	4	51	55	56	58
4	9	48	49	51	52	53	54	55	56	57
6	9	48	49	51	52	53	54	55	56	57
5	9	48	49	51	52	53	54	55	56	57
3	9	48	49	51	52	53	54	55	56	57
7	9	48	49	51	52	53	54	55	56	57
10	4	51	55	56	58
3	9	48	49	51	52	53	54	55	56	57
9	4	60	62	64	66
6	7	59	60	61	62	63	65	66
9	2	58	61
3	7	59	60	61	62	63	65	66
4	2	58	61
7	5	60	62	63	65	66
7	6	59	60	62	63	65	66
3	7	59	60	61	62	63	65	66
7	4	60	62	64	66
10	4	64	66	67	73
3	6	59	60	62	63	65	66
9	10	68	69	70	71	72	73	77	78	79	80
5	4	67	70	73	78
7	5	64	67	70	73	78
8	7	68	69	71	72	77	79	80
5	5	64	67	70	73	78
5	7	68	69	71	72	77	79	80
9	9	68	69	70	71	72	77	78	79	80
6	9	68	69	70	71	72	77	78	79	80
3	7	68	69	71	72	77	79	80
4	5	74	75	76	82	84
7	3	83	85	87
4	5	74	75	76	82	84
1	5	74	75	76	82	84
10	7	86	87	88	89	90	94	95
6	5	74	75	76	82	84
1	1	81
6	7	86	87	88	89	90	94	95
10	4	88	89	94	95
8	2	85	87
6	1	81
7	3	83	85	87
5	1	81
2	3	83	85	87
4	2	85	87
10	5	88	91	93	95	103
9	6	86	88	89	90	94	95
4	6	86	88	89	90	94	95
9	7	92	96	97	99	100	101	102
10	3	91	93	103
9	2	97	100
6	3	91	93	103
7	3	91	93	103
1	8	92	96	97	98	99	100	101	102
10	2	105	109
4	4	97	100	101	102
9	6	96	97	99	100	101	102
10	1	97
10	3	106	107	111
1	2	104	108
9	2	104	108
10	3	106	107	111
6	2	105	109
6	2	104	108
8	2	105	109
10	2	104	108
1	2	105	109
1	3	106	107	111
2	3	110	112	113
5	3	112	115	117
10	4	114	115	116	117
2	3	110	112	113
9	3	114	115	116
4	2	112	113
8	2	114	116
2	4	114	115	116	117
8	1	119
7	2	118	119
4	2	118	119
7	2	118	119
9	1	121
1	1	120
3	1	121
8	1	122
0	0
